Translating instance to solver...

Set parameter TimeLimit to value 28800
Gurobi Optimizer version 11.0.2 build v11.0.2rc0 (linux64 - "Ubuntu 22.04.4 LTS")

CPU model: Intel(R) Xeon(R) Gold 5120 CPU @ 2.20GHz, instruction set [SSE2|AVX|AVX2|AVX512]
Thread count: 28 physical cores, 56 logical processors, using up to 28 threads

Academic license 2463511 - for non-commercial use only - registered to lu___@cefet-rj.br
Optimize a model with 4615 rows, 3173 columns and 12057 nonzeros
Model fingerprint: 0xcb8ea3cf
Variable types: 1 continuous, 3172 integer (3160 binary)
Coefficient statistics:
  Matrix range     [1e+00, 1e+05]
  Objective range  [3e-01, 8e-01]
  Bounds range     [1e+00, 8e+00]
  RHS range        [1e+00, 7e+01]
Presolve removed 4047 rows and 2905 columns
Presolve time: 0.07s
Presolved: 568 rows, 268 columns, 1938 nonzeros
Variable types: 0 continuous, 268 integer (257 binary)

Root relaxation: objective 1.464055e+00, 259 iterations, 0.00 seconds (0.00 work units)

    Nodes    |    Current Node    |     Objective Bounds      |     Work
 Expl Unexpl |  Obj  Depth IntInf | Incumbent    BestBd   Gap | It/Node Time

     0     0    1.46405    0   49          -    1.46405      -     -    0s
H    0     0                       4.0853460    1.51178  63.0%     -    0s
     0     0    1.51178    0   17    4.08535    1.51178  63.0%     -    0s
H    0     0                       3.7794550    1.51178  60.0%     -    0s
H    0     0                       2.2676730    1.51178  33.3%     -    0s
H    0     0                       1.8176730    1.51178  16.8%     -    0s
     0     0    1.51178    0   66    1.81767    1.51178  16.8%     -    0s
     0     0    1.62583    0   97    1.81767    1.62583  10.6%     -    0s
     0     0    1.70138    0   88    1.81767    1.70138  6.40%     -    0s

Cutting planes:
  Learned: 5
  Gomory: 7
  Implied bound: 19
  Clique: 4
  MIR: 13
  Zero half: 10
  RLT: 25
  Relax-and-lift: 2
  BQP: 6

Explored 1 nodes (613 simplex iterations) in 0.19 seconds (0.10 work units)
Thread count was 28 (of 56 available processors)

Solution count 4: 1.81767 2.26767 3.77946 4.08535 

Optimal solution found (tolerance 1.00e-04)
Best objective 1.817673000000e+00, best bound 1.817673000000e+00, gap 0.0000%

Solver Wallclock Time (for this epsilon): 0.19513916969299316 s
Python wallclock Time (for this epsilon): 0.5348072052001953 s


Total Elapsed Time (since program call): 6.930320501327515 s

Results:

I = 1.817673 mA
C = 73.0 points
C ~= 29.200000000000003 km^2

Minimum Epsilon for this instance = 9
Maximum Epsilon for this instance = 96

Current Epsilon = 72


Preprocessing Time (for this epsilon): 0.0017285346984863281 s


Updated solution vectors:
sol_I = [-0.611782,-0.9176730000000001,-1.061782,-1.061782,-1.061782,-1.511782,-1.511782,-1.817673]
sol_C = [9.0,19.0,38.0,49.0,47.0,60.0,65.0,73.0]
sol_eps = [9,18,27,36,45,54,63,72]
sol_gap = [0.0,0.0,0.0,0.0,0.0,0.0,0.0,0.0]
